c Reduced graph for GEOM70_0 generated by Cyril Grelier
p edge 69 266
e 1 2
e 1 3
e 1 4
e 1 5
e 1 7
e 1 10
e 1 11
e 1 12
e 1 13
e 1 15
e 1 16
e 1 20
e 1 57
e 2 3
e 2 4
e 2 5
e 2 7
e 2 10
e 2 13
e 2 15
e 2 16
e 2 20
e 2 22
e 2 30
e 3 4
e 3 5
e 3 6
e 3 10
e 3 16
e 3 19
e 3 20
e 3 30
e 3 43
e 3 56
e 4 5
e 4 6
e 4 10
e 4 16
e 4 19
e 4 20
e 4 30
e 4 66
e 5 6
e 5 7
e 5 10
e 5 16
e 5 20
e 5 22
e 5 30
e 6 8
e 6 9
e 6 10
e 6 16
e 6 18
e 6 19
e 6 30
e 6 66
e 7 10
e 7 11
e 7 12
e 7 13
e 7 15
e 7 21
e 7 22
e 7 57
e 8 9
e 8 17
e 8 18
e 8 19
e 8 24
e 8 26
e 8 27
e 8 32
e 8 34
e 8 36
e 9 17
e 9 18
e 9 19
e 9 24
e 9 27
e 9 32
e 9 34
e 9 36
e 9 42
e 10 16
e 10 20
e 10 43
e 10 56
e 11 12
e 11 13
e 11 15
e 11 21
e 11 22
e 11 38
e 11 41
e 11 47
e 11 57
e 12 21
e 12 38
e 12 41
e 12 50
e 12 57
e 12 60
e 12 61
e 13 15
e 13 21
e 13 22
e 13 30
e 13 47
e 13 62
e 14 23
e 14 25
e 14 28
e 14 29
e 14 33
e 14 39
e 14 40
e 14 45
e 14 53
e 14 58
e 15 21
e 15 22
e 15 47
e 15 57
e 15 62
e 16 20
e 16 43
e 16 56
e 17 18
e 17 19
e 17 24
e 17 26
e 17 27
e 17 32
e 17 34
e 17 36
e 18 19
e 18 24
e 18 42
e 18 51
e 18 67
e 19 42
e 19 51
e 20 43
e 20 56
e 21 38
e 21 41
e 21 50
e 21 57
e 22 30
e 22 47
e 22 62
e 23 28
e 23 29
e 23 33
e 23 35
e 23 39
e 23 64
e 23 68
e 24 27
e 24 32
e 24 42
e 24 67
e 25 40
e 25 45
e 25 52
e 25 53
e 25 58
e 25 63
e 25 65
e 26 27
e 26 32
e 26 34
e 26 36
e 26 54
e 26 66
e 27 32
e 27 34
e 27 36
e 28 29
e 28 33
e 28 35
e 28 39
e 28 53
e 28 58
e 29 33
e 29 35
e 29 39
e 29 40
e 29 69
e 30 66
e 31 37
e 31 44
e 31 46
e 31 48
e 31 49
e 31 52
e 31 55
e 31 59
e 32 34
e 32 36
e 33 35
e 33 39
e 33 64
e 33 68
e 34 36
e 34 54
e 35 39
e 35 64
e 35 68
e 37 44
e 37 46
e 37 48
e 37 49
e 37 55
e 37 59
e 38 41
e 38 50
e 38 60
e 38 61
e 39 40
e 40 45
e 40 47
e 40 62
e 41 50
e 41 60
e 41 61
e 42 43
e 42 51
e 42 67
e 43 51
e 43 56
e 44 46
e 44 48
e 44 49
e 44 54
e 44 55
e 45 53
e 45 58
e 45 63
e 45 65
e 46 48
e 46 52
e 46 55
e 46 59
e 47 62
e 47 69
e 48 49
e 48 55
e 48 59
e 49 54
e 49 63
e 50 60
e 50 61
e 51 56
e 51 67
e 52 53
e 52 58
e 52 59
e 53 58
e 54 63
e 54 65
e 55 59
e 60 61
e 63 65
e 64 68
